(set-logic QF_S)
(declare-fun var0 () String)
(assert (RegexIn var0 (RegexConcat (RegexUnion (RegexStar (Str2Reg "0")) (RegexStar (Str2Reg "11"))) (RegexConcat (RegexStar (RegexPlus (Str2Reg "222"))) (RegexConcat (RegexPlus (RegexPlus (Str2Reg "333"))) (RegexConcat (RegexStar (RegexUnion (Str2Reg "444") (Str2Reg "55"))) (RegexConcat (RegexPlus (RegexPlus (Str2Reg "66"))) (RegexConcat (RegexUnion (RegexUnion (Str2Reg "7") (Str2Reg "88")) (RegexUnion (Str2Reg "9") (Str2Reg "aaa"))) (RegexConcat (RegexPlus (RegexStar (Str2Reg "bbb"))) (RegexConcat (RegexPlus (RegexPlus (Str2Reg "c"))) (RegexConcat (RegexUnion (RegexUnion (Str2Reg "ddd") (Str2Reg "e")) (RegexUnion (Str2Reg "fff") (Str2Reg "g"))) (RegexConcat (RegexStar (RegexUnion (Str2Reg "hhh") (Str2Reg "iii"))) (RegexConcat (RegexUnion (RegexStar (Str2Reg "jj")) (RegexStar (Str2Reg "kkk"))) (RegexConcat (RegexPlus (RegexStar (Str2Reg "l"))) (RegexConcat (RegexUnion (RegexPlus (Str2Reg "mm")) (RegexPlus (Str2Reg "nn"))) (RegexConcat (RegexPlus (RegexStar (Str2Reg "o"))) (RegexConcat (RegexStar (RegexStar (Str2Reg "p"))) (RegexConcat (RegexStar (RegexPlus (Str2Reg "qqq"))) (RegexConcat (RegexStar (RegexStar (Str2Reg "rrr"))) (RegexConcat (RegexPlus (RegexUnion (Str2Reg "sss") (Str2Reg "t"))) (RegexConcat (RegexPlus (RegexUnion (Str2Reg "uuu") (Str2Reg "v"))) (RegexConcat (RegexUnion (RegexUnion (Str2Reg "w") (Str2Reg "xxx")) (RegexUnion (Str2Reg "y") (Str2Reg "zz"))) (RegexConcat (RegexStar (RegexUnion (Str2Reg "A") (Str2Reg "BBB"))) (RegexConcat (RegexUnion (RegexUnion (Str2Reg "CC") (Str2Reg "D")) (RegexUnion (Str2Reg "E") (Str2Reg "FF"))) (RegexConcat (RegexPlus (RegexPlus (Str2Reg "GGG"))) (RegexConcat (RegexUnion (RegexStar (Str2Reg "H")) (RegexStar (Str2Reg "II"))) (RegexConcat (RegexStar (RegexPlus (Str2Reg "JJJ"))) (RegexConcat (RegexStar (RegexUnion (Str2Reg "K") (Str2Reg "LL"))) (RegexConcat (RegexPlus (RegexPlus (Str2Reg "MMM"))) (RegexConcat (RegexPlus (RegexStar (Str2Reg "N"))) (RegexConcat (RegexUnion (RegexUnion (Str2Reg "OOO") (Str2Reg "P")) (RegexUnion (Str2Reg "QQ") (Str2Reg "R"))) (RegexConcat (RegexStar (RegexUnion (Str2Reg "SSS") (Str2Reg "TT"))) (RegexConcat (RegexStar (RegexPlus (Str2Reg "U"))) (RegexConcat (RegexUnion (RegexUnion (Str2Reg "VV") (Str2Reg "W")) (RegexUnion (Str2Reg "X") (Str2Reg "Y"))) (RegexConcat (RegexStar (RegexPlus (Str2Reg "ZZZ"))) (RegexConcat (RegexUnion (RegexStar (Str2Reg "!!!")) (RegexStar (Str2Reg "\"\""))) (RegexConcat (RegexUnion (RegexUnion (Str2Reg "#") (Str2Reg "$$")) (RegexUnion (Str2Reg "%%%") (Str2Reg "&&"))) (RegexConcat (RegexPlus (RegexStar (Str2Reg "''"))) (RegexConcat (RegexStar (RegexPlus (Str2Reg "(("))) (RegexConcat (RegexPlus (RegexPlus (Str2Reg ")"))) (RegexConcat (RegexPlus (RegexStar (Str2Reg "*"))) (RegexConcat (RegexStar (RegexUnion (Str2Reg "+") (Str2Reg ","))) (RegexConcat (RegexPlus (RegexUnion (Str2Reg "---") (Str2Reg "."))) (RegexConcat (RegexUnion (RegexStar (Str2Reg "//")) (RegexStar (Str2Reg ":"))) (RegexConcat (RegexUnion (RegexUnion (Str2Reg ";") (Str2Reg "<<")) (RegexUnion (Str2Reg "=") (Str2Reg ">>>"))) (RegexConcat (RegexStar (RegexUnion (Str2Reg "???") (Str2Reg "@@@"))) (RegexConcat (RegexUnion (RegexStar (Str2Reg "[[")) (RegexStar (Str2Reg "\\\\\\"))) (RegexConcat (RegexStar (RegexPlus (Str2Reg "]]"))) (RegexConcat (RegexPlus (RegexPlus (Str2Reg "^^^"))) (RegexConcat (RegexUnion (RegexStar (Str2Reg "___")) (RegexStar (Str2Reg "`"))) (RegexConcat (RegexUnion (RegexStar (Str2Reg "{{{")) (RegexStar (Str2Reg "|"))) (RegexConcat (RegexStar (RegexUnion (Str2Reg "}}") (Str2Reg "~~~"))) (RegexConcat (RegexStar (RegexUnion (Str2Reg "00") (Str2Reg "11"))) (RegexConcat (RegexStar (RegexStar (Str2Reg "22"))) (RegexConcat (RegexPlus (RegexPlus (Str2Reg "33"))) (RegexConcat (RegexUnion (RegexPlus (Str2Reg "444")) (RegexPlus (Str2Reg "5"))) (RegexConcat (RegexStar (RegexStar (Str2Reg "666"))) (RegexConcat (RegexStar (RegexStar (Str2Reg "777"))) (RegexStar (RegexUnion (Str2Reg "8") (Str2Reg "99")))))))))))))))))))))))))))))))))))))))))))))))))))))))))))))
(check-sat)